; benchmark generated from python API
(set-info :status unknown)
(declare-fun R () (_ BitVec 32))
(declare-fun rdi () (_ BitVec 64))
(declare-fun rsi () (_ BitVec 64))
(assert
 (let (($x671 (= (_ bv0 32) R)))
 (let ((?x6 ((_ extract 31 0) rdi)))
 (let (($x62 (bvsgt (_ bv1 32) ?x6)))
 (let (($x716 (and $x62 $x671)))
 (let ((?x8 ((_ extract 31 0) rsi)))
 (let ((?x198 (bvmul (_ bv4294967295 32) ?x8)))
 (let (($x714 (= R ?x198)))
 (let (($x489 (bvsle (_ bv1 32) ?x6)))
 (let (($x229 (bvsgt (_ bv2 32) ?x6)))
 (let (($x715 (and $x229 $x489 $x714)))
 (let ((?x81 (bvmul (_ bv4294967294 32) ?x8)))
 (let (($x712 (= R ?x81)))
 (let (($x199 (bvsle (_ bv2 32) ?x6)))
 (let (($x124 (bvsgt (_ bv3 32) ?x6)))
 (let (($x713 (and $x124 $x199 $x489 $x712)))
 (let ((?x123 (bvmul (_ bv4294967293 32) ?x8)))
 (let (($x710 (= R ?x123)))
 (let (($x200 (bvsle (_ bv3 32) ?x6)))
 (let (($x23 (bvsgt (_ bv4 32) ?x6)))
 (let (($x711 (and $x23 $x200 $x199 $x489 $x710)))
 (let ((?x14 (bvmul (_ bv4294967292 32) ?x8)))
 (let (($x708 (= R ?x14)))
 (let (($x16 (bvsle (_ bv4 32) ?x6)))
 (let (($x99 (bvsgt (_ bv5 32) ?x6)))
 (let (($x709 (and $x99 $x16 $x200 $x199 $x489 $x708)))
 (let ((?x103 (bvmul (_ bv4294967291 32) ?x8)))
 (let (($x706 (= R ?x103)))
 (let (($x92 (bvsle (_ bv5 32) ?x6)))
 (let (($x112 (bvsgt (_ bv6 32) ?x6)))
 (let (($x707 (and $x112 $x92 $x16 $x200 $x199 $x489 $x706)))
 (let ((?x116 (bvmul (_ bv4294967290 32) ?x8)))
 (let (($x704 (= R ?x116)))
 (let (($x107 (bvsle (_ bv6 32) ?x6)))
 (let (($x131 (bvsgt (_ bv7 32) ?x6)))
 (let (($x705 (and $x131 $x107 $x92 $x16 $x200 $x199 $x489 $x704)))
 (let ((?x161 (bvmul (_ bv4294967289 32) ?x8)))
 (let (($x702 (= R ?x161)))
 (let (($x122 (bvsle (_ bv7 32) ?x6)))
 (let (($x217 (bvsgt (_ bv8 32) ?x6)))
 (let (($x703 (and $x217 $x122 $x107 $x92 $x16 $x200 $x199 $x489 $x702)))
 (let ((?x249 (bvmul (_ bv4294967288 32) ?x8)))
 (let (($x700 (= R ?x249)))
 (let (($x189 (bvsle (_ bv8 32) ?x6)))
 (let (($x283 (bvsgt (_ bv9 32) ?x6)))
 (let (($x701 (and $x283 $x189 $x122 $x107 $x92 $x16 $x200 $x199 $x489 $x700)))
 (let ((?x311 (bvmul (_ bv4294967287 32) ?x8)))
 (let (($x698 (= R ?x311)))
 (let (($x251 (bvsle (_ bv9 32) ?x6)))
 (let (($x382 (bvsgt (_ bv10 32) ?x6)))
 (let (($x699 (and $x382 $x251 $x189 $x122 $x107 $x92 $x16 $x200 $x199 $x489 $x698)))
 (let ((?x399 (bvmul (_ bv4294967286 32) ?x8)))
 (let (($x696 (= R ?x399)))
 (let (($x356 (bvsle (_ bv10 32) ?x6)))
 (let (($x453 (bvsgt (_ bv11 32) ?x6)))
 (let (($x697 (and $x453 $x356 $x251 $x189 $x122 $x107 $x92 $x16 $x200 $x199 $x489 $x696)))
 (let ((?x424 (bvmul (_ bv4294967285 32) ?x8)))
 (let (($x694 (= R ?x424)))
 (let (($x418 (bvsle (_ bv11 32) ?x6)))
 (let (($x457 (bvsgt (_ bv12 32) ?x6)))
 (let (($x695 (and $x457 $x418 $x356 $x251 $x189 $x122 $x107 $x92 $x16 $x200 $x199 $x489 $x694)))
 (let ((?x389 (bvmul (_ bv4294967284 32) ?x8)))
 (let (($x692 (= R ?x389)))
 (let (($x486 (bvsle (_ bv12 32) ?x6)))
 (let (($x258 (bvsgt (_ bv13 32) ?x6)))
 (let (($x693 (and $x258 $x486 $x418 $x356 $x251 $x189 $x122 $x107 $x92 $x16 $x200 $x199 $x489 $x692)))
 (let ((?x238 (bvmul (_ bv4294967283 32) ?x8)))
 (let (($x163 (= R ?x238)))
 (let (($x345 (bvsle (_ bv13 32) ?x6)))
 (let (($x304 (bvsgt (_ bv14 32) ?x6)))
 (let (($x303 (and $x304 $x345 $x486 $x418 $x356 $x251 $x189 $x122 $x107 $x92 $x16 $x200 $x199 $x489 $x163)))
 (let ((?x153 (bvmul (_ bv4294967282 32) ?x8)))
 (let (($x512 (= R ?x153)))
 (let (($x195 (bvsle (_ bv14 32) ?x6)))
 (let (($x36 (bvsgt (_ bv15 32) ?x6)))
 (let (($x494 (and $x36 $x195 $x345 $x486 $x418 $x356 $x251 $x189 $x122 $x107 $x92 $x16 $x200 $x199 $x489 $x512)))
 (let ((?x39 (bvmul (_ bv4294967281 32) ?x8)))
 (let (($x547 (= R ?x39)))
 (let (($x34 (bvsle (_ bv15 32) ?x6)))
 (let (($x443 (bvsgt (_ bv16 32) ?x6)))
 (let (($x529 (and $x443 $x34 $x195 $x345 $x486 $x418 $x356 $x251 $x189 $x122 $x107 $x92 $x16 $x200 $x199 $x489 $x547)))
 (let ((?x390 (bvmul (_ bv4294967280 32) ?x8)))
 (let (($x582 (= R ?x390)))
 (let (($x269 (bvsle (_ bv16 32) ?x6)))
 (let (($x240 (bvsgt (_ bv17 32) ?x6)))
 (let (($x565 (and $x240 $x269 $x34 $x195 $x345 $x486 $x418 $x356 $x251 $x189 $x122 $x107 $x92 $x16 $x200 $x199 $x489 $x582)))
 (let ((?x452 (bvmul (_ bv4294967279 32) ?x8)))
 (let (($x690 (= R ?x452)))
 (let (($x346 (bvsle (_ bv17 32) ?x6)))
 (let (($x168 (bvsgt (_ bv18 32) ?x6)))
 (let (($x691 (and $x168 $x346 $x269 $x34 $x195 $x345 $x486 $x418 $x356 $x251 $x189 $x122 $x107 $x92 $x16 $x200 $x199 $x489 $x690)))
 (let ((?x455 (bvmul (_ bv4294967278 32) ?x8)))
 (let (($x688 (= R ?x455)))
 (let (($x460 (bvsle (_ bv18 32) ?x6)))
 (let (($x497 (bvsgt (_ bv19 32) ?x6)))
 (let (($x689 (and $x497 $x460 $x346 $x269 $x34 $x195 $x345 $x486 $x418 $x356 $x251 $x189 $x122 $x107 $x92 $x16 $x200 $x199 $x489 $x688)))
 (let ((?x500 (bvmul (_ bv4294967277 32) ?x8)))
 (let (($x686 (= R ?x500)))
 (let (($x367 (bvsle (_ bv19 32) ?x6)))
 (let (($x514 (bvsgt (_ bv20 32) ?x6)))
 (let (($x687 (and $x514 $x367 $x460 $x346 $x269 $x34 $x195 $x345 $x486 $x418 $x356 $x251 $x189 $x122 $x107 $x92 $x16 $x200 $x199 $x489 $x686)))
 (let ((?x518 (bvmul (_ bv4294967276 32) ?x8)))
 (let (($x684 (= R ?x518)))
 (let (($x508 (bvsle (_ bv20 32) ?x6)))
 (let (($x532 (bvsgt (_ bv21 32) ?x6)))
 (let (($x685 (and $x532 $x508 $x367 $x460 $x346 $x269 $x34 $x195 $x345 $x486 $x418 $x356 $x251 $x189 $x122 $x107 $x92 $x16 $x200 $x199 $x489 $x684)))
 (let ((?x535 (bvmul (_ bv4294967275 32) ?x8)))
 (let (($x682 (= R ?x535)))
 (let (($x524 (bvsle (_ bv21 32) ?x6)))
 (let (($x549 (bvsgt (_ bv22 32) ?x6)))
 (let (($x683 (and $x549 $x524 $x508 $x367 $x460 $x346 $x269 $x34 $x195 $x345 $x486 $x418 $x356 $x251 $x189 $x122 $x107 $x92 $x16 $x200 $x199 $x489 $x682)))
 (let ((?x553 (bvmul (_ bv4294967274 32) ?x8)))
 (let (($x680 (= R ?x553)))
 (let (($x543 (bvsle (_ bv22 32) ?x6)))
 (let (($x568 (bvsgt (_ bv23 32) ?x6)))
 (let (($x681 (and $x568 $x543 $x524 $x508 $x367 $x460 $x346 $x269 $x34 $x195 $x345 $x486 $x418 $x356 $x251 $x189 $x122 $x107 $x92 $x16 $x200 $x199 $x489 $x680)))
 (let ((?x571 (bvmul (_ bv4294967273 32) ?x8)))
 (let (($x678 (= R ?x571)))
 (let (($x560 (bvsle (_ bv23 32) ?x6)))
 (let (($x585 (bvsgt (_ bv24 32) ?x6)))
 (let (($x679 (and $x585 $x560 $x543 $x524 $x508 $x367 $x460 $x346 $x269 $x34 $x195 $x345 $x486 $x418 $x356 $x251 $x189 $x122 $x107 $x92 $x16 $x200 $x199 $x489 $x678)))
 (let ((?x588 (bvmul (_ bv4294967272 32) ?x8)))
 (let (($x676 (= R ?x588)))
 (let (($x579 (bvsle (_ bv24 32) ?x6)))
 (let (($x600 (bvsgt (_ bv25 32) ?x6)))
 (let (($x677 (and $x600 $x579 $x560 $x543 $x524 $x508 $x367 $x460 $x346 $x269 $x34 $x195 $x345 $x486 $x418 $x356 $x251 $x189 $x122 $x107 $x92 $x16 $x200 $x199 $x489 $x676)))
 (let ((?x603 (bvmul (_ bv4294967271 32) ?x8)))
 (let (($x674 (= R ?x603)))
 (let (($x594 (bvsle (_ bv25 32) ?x6)))
 (let (($x615 (bvsgt (_ bv26 32) ?x6)))
 (let (($x675 (and $x615 $x594 $x579 $x560 $x543 $x524 $x508 $x367 $x460 $x346 $x269 $x34 $x195 $x345 $x486 $x418 $x356 $x251 $x189 $x122 $x107 $x92 $x16 $x200 $x199 $x489 $x674)))
 (let (($x717 (or $x675 $x677 $x679 $x681 $x683 $x685 $x687 $x689 $x691 $x565 $x529 $x494 $x303 $x693 $x695 $x697 $x699 $x701 $x703 $x705 $x707 $x709 $x711 $x713 $x715 $x716)))
 (let (($x720 (not $x717)))
 (let (($x41 (bvsgt (_ bv1 32) ?x8)))
 (let (($x672 (and $x41 $x671)))
 (let (($x669 (= R ?x6)))
 (let (($x13 (bvsle (_ bv1 32) ?x8)))
 (let (($x129 (bvsgt (_ bv2 32) ?x8)))
 (let (($x670 (and $x129 $x13 $x669)))
 (let ((?x38 (bvmul (_ bv2 32) ?x6)))
 (let (($x667 (= R ?x38)))
 (let (($x54 (bvsle (_ bv2 32) ?x8)))
 (let (($x136 (bvsgt (_ bv3 32) ?x8)))
 (let (($x668 (and $x136 $x54 $x13 $x667)))
 (let ((?x137 (bvmul (_ bv3 32) ?x6)))
 (let (($x665 (= R ?x137)))
 (let (($x40 (bvsle (_ bv3 32) ?x8)))
 (let (($x151 (bvsgt (_ bv4 32) ?x8)))
 (let (($x666 (and $x151 $x40 $x54 $x13 $x665)))
 (let ((?x154 (bvmul (_ bv4 32) ?x6)))
 (let (($x663 (= R ?x154)))
 (let (($x146 (bvsle (_ bv4 32) ?x8)))
 (let (($x166 (bvsgt (_ bv5 32) ?x8)))
 (let (($x664 (and $x166 $x146 $x40 $x54 $x13 $x663)))
 (let ((?x150 (bvmul (_ bv5 32) ?x6)))
 (let (($x661 (= R ?x150)))
 (let (($x158 (bvsle (_ bv5 32) ?x8)))
 (let (($x183 (bvsgt (_ bv6 32) ?x8)))
 (let (($x662 (and $x183 $x158 $x146 $x40 $x54 $x13 $x661)))
 (let ((?x164 (bvmul (_ bv6 32) ?x6)))
 (let (($x659 (= R ?x164)))
 (let (($x175 (bvsle (_ bv6 32) ?x8)))
 (let (($x194 (bvsgt (_ bv7 32) ?x8)))
 (let (($x660 (and $x194 $x175 $x158 $x146 $x40 $x54 $x13 $x659)))
 (let ((?x181 (bvmul (_ bv7 32) ?x6)))
 (let (($x657 (= R ?x181)))
 (let (($x186 (bvsle (_ bv7 32) ?x8)))
 (let (($x208 (bvsgt (_ bv8 32) ?x8)))
 (let (($x658 (and $x208 $x186 $x175 $x158 $x146 $x40 $x54 $x13 $x657)))
 (let ((?x192 (bvmul (_ bv8 32) ?x6)))
 (let (($x655 (= R ?x192)))
 (let (($x201 (bvsle (_ bv8 32) ?x8)))
 (let (($x221 (bvsgt (_ bv9 32) ?x8)))
 (let (($x656 (and $x221 $x201 $x186 $x175 $x158 $x146 $x40 $x54 $x13 $x655)))
 (let ((?x206 (bvmul (_ bv9 32) ?x6)))
 (let (($x653 (= R ?x206)))
 (let (($x213 (bvsle (_ bv9 32) ?x8)))
 (let (($x239 (bvsgt (_ bv10 32) ?x8)))
 (let (($x654 (and $x239 $x213 $x201 $x186 $x175 $x158 $x146 $x40 $x54 $x13 $x653)))
 (let ((?x219 (bvmul (_ bv10 32) ?x6)))
 (let (($x651 (= R ?x219)))
 (let (($x231 (bvsle (_ bv10 32) ?x8)))
 (let (($x256 (bvsgt (_ bv11 32) ?x8)))
 (let (($x652 (and $x256 $x231 $x213 $x201 $x186 $x175 $x158 $x146 $x40 $x54 $x13 $x651)))
 (let ((?x236 (bvmul (_ bv11 32) ?x6)))
 (let (($x649 (= R ?x236)))
 (let (($x248 (bvsle (_ bv11 32) ?x8)))
 (let (($x271 (bvsgt (_ bv12 32) ?x8)))
 (let (($x650 (and $x271 $x248 $x231 $x213 $x201 $x186 $x175 $x158 $x146 $x40 $x54 $x13 $x649)))
 (let ((?x254 (bvmul (_ bv12 32) ?x6)))
 (let (($x647 (= R ?x254)))
 (let (($x265 (bvsle (_ bv12 32) ?x8)))
 (let (($x287 (bvsgt (_ bv13 32) ?x8)))
 (let (($x648 (and $x287 $x265 $x248 $x231 $x213 $x201 $x186 $x175 $x158 $x146 $x40 $x54 $x13 $x647)))
 (let ((?x270 (bvmul (_ bv13 32) ?x6)))
 (let (($x645 (= R ?x270)))
 (let (($x279 (bvsle (_ bv13 32) ?x8)))
 (let (($x301 (bvsgt (_ bv14 32) ?x8)))
 (let (($x646 (and $x301 $x279 $x265 $x248 $x231 $x213 $x201 $x186 $x175 $x158 $x146 $x40 $x54 $x13 $x645)))
 (let ((?x285 (bvmul (_ bv14 32) ?x6)))
 (let (($x643 (= R ?x285)))
 (let (($x295 (bvsle (_ bv14 32) ?x8)))
 (let (($x317 (bvsgt (_ bv15 32) ?x8)))
 (let (($x644 (and $x317 $x295 $x279 $x265 $x248 $x231 $x213 $x201 $x186 $x175 $x158 $x146 $x40 $x54 $x13 $x643)))
 (let ((?x300 (bvmul (_ bv15 32) ?x6)))
 (let (($x641 (= R ?x300)))
 (let (($x309 (bvsle (_ bv15 32) ?x8)))
 (let (($x330 (bvsgt (_ bv16 32) ?x8)))
 (let (($x642 (and $x330 $x309 $x295 $x279 $x265 $x248 $x231 $x213 $x201 $x186 $x175 $x158 $x146 $x40 $x54 $x13 $x641)))
 (let ((?x315 (bvmul (_ bv16 32) ?x6)))
 (let (($x639 (= R ?x315)))
 (let (($x325 (bvsle (_ bv16 32) ?x8)))
 (let (($x344 (bvsgt (_ bv17 32) ?x8)))
 (let (($x640 (and $x344 $x325 $x309 $x295 $x279 $x265 $x248 $x231 $x213 $x201 $x186 $x175 $x158 $x146 $x40 $x54 $x13 $x639)))
 (let ((?x329 (bvmul (_ bv17 32) ?x6)))
 (let (($x637 (= R ?x329)))
 (let (($x336 (bvsle (_ bv17 32) ?x8)))
 (let (($x314 (bvsgt (_ bv18 32) ?x8)))
 (let (($x638 (and $x314 $x336 $x325 $x309 $x295 $x279 $x265 $x248 $x231 $x213 $x201 $x186 $x175 $x158 $x146 $x40 $x54 $x13 $x637)))
 (let ((?x342 (bvmul (_ bv18 32) ?x6)))
 (let (($x635 (= R ?x342)))
 (let (($x353 (bvsle (_ bv18 32) ?x8)))
 (let (($x370 (bvsgt (_ bv19 32) ?x8)))
 (let (($x636 (and $x370 $x353 $x336 $x325 $x309 $x295 $x279 $x265 $x248 $x231 $x213 $x201 $x186 $x175 $x158 $x146 $x40 $x54 $x13 $x635)))
 (let ((?x360 (bvmul (_ bv19 32) ?x6)))
 (let (($x633 (= R ?x360)))
 (let (($x362 (bvsle (_ bv19 32) ?x8)))
 (let (($x387 (bvsgt (_ bv20 32) ?x8)))
 (let (($x634 (and $x387 $x362 $x353 $x336 $x325 $x309 $x295 $x279 $x265 $x248 $x231 $x213 $x201 $x186 $x175 $x158 $x146 $x40 $x54 $x13 $x633)))
 (let ((?x368 (bvmul (_ bv20 32) ?x6)))
 (let (($x631 (= R ?x368)))
 (let (($x379 (bvsle (_ bv20 32) ?x8)))
 (let (($x405 (bvsgt (_ bv21 32) ?x8)))
 (let (($x632 (and $x405 $x379 $x362 $x353 $x336 $x325 $x309 $x295 $x279 $x265 $x248 $x231 $x213 $x201 $x186 $x175 $x158 $x146 $x40 $x54 $x13 $x631)))
 (let ((?x386 (bvmul (_ bv21 32) ?x6)))
 (let (($x629 (= R ?x386)))
 (let (($x397 (bvsle (_ bv21 32) ?x8)))
 (let (($x422 (bvsgt (_ bv22 32) ?x8)))
 (let (($x630 (and $x422 $x397 $x379 $x362 $x353 $x336 $x325 $x309 $x295 $x279 $x265 $x248 $x231 $x213 $x201 $x186 $x175 $x158 $x146 $x40 $x54 $x13 $x629)))
 (let ((?x403 (bvmul (_ bv22 32) ?x6)))
 (let (($x627 (= R ?x403)))
 (let (($x414 (bvsle (_ bv22 32) ?x8)))
 (let (($x441 (bvsgt (_ bv23 32) ?x8)))
 (let (($x628 (and $x441 $x414 $x397 $x379 $x362 $x353 $x336 $x325 $x309 $x295 $x279 $x265 $x248 $x231 $x213 $x201 $x186 $x175 $x158 $x146 $x40 $x54 $x13 $x627)))
 (let ((?x421 (bvmul (_ bv23 32) ?x6)))
 (let (($x625 (= R ?x421)))
 (let (($x433 (bvsle (_ bv23 32) ?x8)))
 (let (($x458 (bvsgt (_ bv24 32) ?x8)))
 (let (($x626 (and $x458 $x433 $x414 $x397 $x379 $x362 $x353 $x336 $x325 $x309 $x295 $x279 $x265 $x248 $x231 $x213 $x201 $x186 $x175 $x158 $x146 $x40 $x54 $x13 $x625)))
 (let ((?x439 (bvmul (_ bv24 32) ?x6)))
 (let (($x623 (= R ?x439)))
 (let (($x450 (bvsle (_ bv24 32) ?x8)))
 (let (($x473 (bvsgt (_ bv25 32) ?x8)))
 (let (($x624 (and $x473 $x450 $x433 $x414 $x397 $x379 $x362 $x353 $x336 $x325 $x309 $x295 $x279 $x265 $x248 $x231 $x213 $x201 $x186 $x175 $x158 $x146 $x40 $x54 $x13 $x623)))
 (let ((?x456 (bvmul (_ bv25 32) ?x6)))
 (let (($x621 (= R ?x456)))
 (let (($x465 (bvsle (_ bv25 32) ?x8)))
 (let (($x488 (bvsgt (_ bv26 32) ?x8)))
 (let (($x622 (and $x488 $x465 $x450 $x433 $x414 $x397 $x379 $x362 $x353 $x336 $x325 $x309 $x295 $x279 $x265 $x248 $x231 $x213 $x201 $x186 $x175 $x158 $x146 $x40 $x54 $x13 $x621)))
 (let (($x673 (or $x622 $x624 $x626 $x628 $x630 $x632 $x634 $x636 $x638 $x640 $x642 $x644 $x646 $x648 $x650 $x652 $x654 $x656 $x658 $x660 $x662 $x664 $x666 $x668 $x670 $x672)))
 (let (($x719 (not $x673)))
 (let (($x721 (and $x719 $x720)))
 (let (($x718 (and $x673 $x717)))
 (let (($x722 (or $x718 $x721)))
 (not $x722)))))))))))))))))))))))))))))))))))))))))))))))))))))))))))))))))))))))))))))))))))))))))))))))))))))))))))))))))))))))))))))))))))))))))))))))))))))))))))))))))))))))))))))))))))))))))))))))))))))))))))))))))))))))))))))))))))))))))))))))))))))))))))))))))))))))))
(check-sat)
